NAME: tsp10_28
COMMENT: 10-tsp problem (Padberg/Rinaldi)
TYPE: TSP
DIMENSION: 10
EDGE_WEIGHT_TYPE : EUC_2D
NODE_COORD_SECTION
1 35 5
2 34 6
3 2 22
4 39 39
5 32 14
6 13 28
7 16 36
8 24 24
9 6 25
10 8 24
